NAME : X-n20-k7
CAPACITY : 529	
NODE_COORD_SECTION	
1   134   267
2   412   185
3   278   450
4   361   323
5   245   125
6   392   285
7   127   410
8   275   75
9   450   233
10  66    354
11  300   190
12  48   339
13  150   450
14  215   60
15  170   289
16  250   401
17  190   297
18  371   120
19  420   233
20  89    361
DEMAND_SECTION
1   0
2   45
3   32
4   51
5   2
6   93
7   15
8   25
9   35
10  10
11  5
12  30
13  40
14  15
15  28
16  11
17  25
18  35
19  10
20  5
DEPOT_SECTION		
	1	
	-1	
EOF	
	
